NAME: cityu10
COMMENT : 10 locations
COMMENT : Best: 384.43
TYPE: TSP
DIMENSION: 10
EDGE_WEIGHT_TYPE: CITYU
NODE_COORD_SECTION
1 4 5007
2 2 65
3 1 1888
4 1 1745
5 2 65
6 1 1662
7 1 1699
8 1 1679
9 1 1753
10 1 1793
